isodistort-output
1.0
       89.4772109985         0.0000000000         0.0000000000
        0.0000000000         5.5923299789         0.0000000000
        0.0000000000         0.0000000000         3.9165399075
   Sr   Ti    O
   32   32   96
Direct
     0.968869984         0.499680012         0.000000000
     0.468870014         0.500319958         0.000000000
     0.031369999         0.501399994         0.000000000
     0.531369984         0.498600006         0.000000000
     0.093869999         0.497729987         0.000000000
     0.593869984         0.502269983         0.000000000
     0.156369999         0.502789974         0.000000000
     0.656369984         0.497210026         0.000000000
     0.218869999         0.497110009         0.000000000
     0.718869984         0.502889991         0.000000000
     0.281370014         0.502539992         0.000000000
     0.781370044         0.497460008         0.000000000
     0.343870014         0.498189986         0.000000000
     0.843870044         0.501810014         0.000000000
     0.406370014         0.500810027         0.000000000
     0.906370044         0.499189973         0.000000000
     0.000120000         0.997229993         0.000000000
     0.500119984         0.002770000         0.000000000
     0.062619999         0.002220000         0.000000000
     0.562619984         0.997780025         0.000000000
     0.125119999         0.998660028         0.000000000
     0.625119984         0.001340000         0.000000000
     0.187619999         0.000250000         0.000000000
     0.687619984         0.999750018         0.000000000
     0.250120014         0.000880000         0.000000000
     0.750120044         0.999119997         0.000000000
     0.312620014         0.998130023         0.000000000
     0.812620044         0.001870000         0.000000000
     0.375120014         0.002580000         0.000000000
     0.875120044         0.997420013         0.000000000
     0.437620014         0.997110009         0.000000000
     0.937620044         0.002890000         0.000000000
     0.000120000         0.498910010         0.500000000
     0.500119984         0.501089990         0.500000000
     0.062619999         0.500769973         0.500000000
     0.562619984         0.499230027         0.500000000
     0.125119999         0.499659985         0.500000000
     0.625119984         0.500339985         0.500000000
     0.187619999         0.499850005         0.500000000
     0.687619984         0.500149965         0.500000000
     0.250120014         0.500609994         0.500000000
     0.750120044         0.499390006         0.500000000
     0.312620014         0.499020010         0.500000000
     0.812620044         0.500980020         0.500000000
     0.375120014         0.501200020         0.500000000
     0.875120044         0.498799980         0.500000000
     0.437620014         0.498760015         0.500000000
     0.937620044         0.501240015         0.500000000
     0.031369999         0.000810000         0.500000000
     0.531369984         0.999189973         0.500000000
     0.093869999         0.998889983         0.500000000
     0.593869984         0.001110000         0.500000000
     0.156369999         0.001240000         0.500000000
     0.656369984         0.998759985         0.500000000
     0.218869999         0.998820007         0.500000000
     0.718869984         0.001180000         0.500000000
     0.281370014         0.000950000         0.500000000
     0.781370044         0.999050021         0.500000000
     0.343870014         0.999440014         0.500000000
     0.843870044         0.000560000         0.500000000
     0.406370014         0.000100000         0.500000000
     0.906370044         0.999899983         0.500000000
     0.468870014         0.000380000         0.500000000
     0.968870044         0.999620020         0.500000000
     0.984459996         0.250230014         0.500000000
     0.484459996         0.749769986         0.500000000
     0.047019999         0.249430001         0.500000000
     0.547020018         0.750569999         0.500000000
     0.109470002         0.250820011         0.500000000
     0.609470010         0.749179959         0.500000000
     0.172010005         0.249050006         0.500000000
     0.672010005         0.750949979         0.500000000
     0.234479994         0.250930011         0.500000000
     0.734480023         0.749069989         0.500000000
     0.296990007         0.249229997         0.500000000
     0.796990037         0.750769973         0.500000000
     0.359510005         0.250499994         0.500000000
     0.859510005         0.749500036         0.500000000
     0.421970010         0.249860004         0.500000000
     0.921970010         0.750140011         0.500000000
     0.484519988         0.249770001         0.500000000
     0.984519958         0.750230014         0.500000000
     0.546959996         0.250569999         0.500000000
     0.046959996         0.749430001         0.500000000
     0.609520018         0.249180004         0.500000000
     0.109520018         0.750819981         0.500000000
     0.671970010         0.250950009         0.500000000
     0.171970010         0.749050021         0.500000000
     0.734499991         0.249070004         0.500000000
     0.234499991         0.750930011         0.500000000
     0.796999991         0.250770003         0.500000000
     0.296999991         0.749230027         0.500000000
     0.859480023         0.249500006         0.500000000
     0.359480023         0.750499964         0.500000000
     0.922020018         0.250140011         0.500000000
     0.422020018         0.749859989         0.500000000
     0.015740000         0.750869989         0.500000000
     0.515739977         0.249130011         0.500000000
     0.078230001         0.749350011         0.500000000
     0.578230023         0.250649989         0.500000000
     0.140760005         0.750329971         0.500000000
     0.640760005         0.249670029         0.500000000
     0.203219995         0.750050008         0.500000000
     0.703220010         0.249949992         0.500000000
     0.265769988         0.749589980         0.500000000
     0.765769958         0.250410020         0.500000000
     0.328209996         0.750710011         0.500000000
     0.828209996         0.249289989         0.500000000
     0.390760005         0.749090016         0.500000000
     0.890760005         0.250909984         0.500000000
     0.453229994         0.750959992         0.500000000
     0.953230023         0.249040008         0.500000000
     0.515739977         0.749130011         0.500000000
     0.015739977         0.250869989         0.500000000
     0.578249991         0.750649989         0.500000000
     0.078249991         0.249350011         0.500000000
     0.640720010         0.749670029         0.500000000
     0.140720010         0.250329971         0.500000000
     0.703270018         0.749949992         0.500000000
     0.203270018         0.250050008         0.500000000
     0.765709996         0.750410020         0.500000000
     0.265709996         0.249589980         0.500000000
     0.828270018         0.749289989         0.500000000
     0.328270018         0.250710011         0.500000000
     0.890720010         0.750909984         0.500000000
     0.390720010         0.249090016         0.500000000
     0.953249991         0.749040008         0.500000000
     0.453249991         0.250959992         0.500000000
     0.000120000         0.501129985         0.000000000
     0.500119984         0.498870015         0.000000000
     0.062619999         0.498769999         0.000000000
     0.562619984         0.501230001         0.000000000
     0.125119999         0.501139998         0.000000000
     0.625119984         0.498860002         0.000000000
     0.187619999         0.499119997         0.000000000
     0.687619984         0.500880003         0.000000000
     0.250120014         0.500479996         0.000000000
     0.750120044         0.499520004         0.000000000
     0.312620014         0.499989986         0.000000000
     0.812620044         0.500010014         0.000000000
     0.375120014         0.499540001         0.000000000
     0.875120044         0.500460029         0.000000000
     0.437620014         0.500859976         0.000000000
     0.937620044         0.499140024         0.000000000
     0.031369999         0.000250000         0.000000000
     0.531369984         0.999750018         0.000000000
     0.093869999         0.000230000         0.000000000
     0.593869984         0.999769986         0.000000000
     0.156369999         0.999329984         0.000000000
     0.656369984         0.000670000         0.000000000
     0.218869999         0.001020000         0.000000000
     0.718869984         0.998979986         0.000000000
     0.281370014         0.998799980         0.000000000
     0.781370044         0.001200000         0.000000000
     0.343870014         0.001210000         0.000000000
     0.843870044         0.998790026         0.000000000
     0.406370014         0.998969972         0.000000000
     0.906370044         0.001030000         0.000000000
     0.468870014         0.000690000         0.000000000
     0.968870044         0.999310017         0.000000000
