isodistort-output
1.0
       89.4772109985         0.0000000000         0.0000000000
        0.0000000000         5.5923299789         0.0000000000
        0.0000000000         0.0000000000         3.9165399075
   Sr   Ti    O
   32   32   96
Direct
     0.968869984         0.504140019         0.000000000
     0.468870014         0.495859981         0.000000000
     0.031369999         0.495519996         0.000000000
     0.531369984         0.504480004         0.000000000
     0.093869999         0.504149973         0.000000000
     0.593869984         0.495850027         0.000000000
     0.156369999         0.496820003         0.000000000
     0.656369984         0.503180027         0.000000000
     0.218869999         0.501730025         0.000000000
     0.718869984         0.498269975         0.000000000
     0.281370014         0.499989986         0.000000000
     0.781370044         0.500010014         0.000000000
     0.343870014         0.498290002         0.000000000
     0.843870044         0.501709998         0.000000000
     0.406370014         0.503160000         0.000000000
     0.906370044         0.496840000         0.000000000
     0.000120000         0.999119997         0.000000000
     0.500119984         0.000880000         0.000000000
     0.062619999         0.999140024         0.000000000
     0.562619984         0.000860000         0.000000000
     0.125119999         0.002480000         0.000000000
     0.625119984         0.997520030         0.000000000
     0.187619999         0.996280015         0.000000000
     0.687619984         0.003720000         0.000000000
     0.250120014         0.004400000         0.000000000
     0.750120044         0.995599985         0.000000000
     0.312620014         0.995599985         0.000000000
     0.812620044         0.004400000         0.000000000
     0.375120014         0.003730000         0.000000000
     0.875120044         0.996270001         0.000000000
     0.437620014         0.997500002         0.000000000
     0.937620044         0.002500000         0.000000000
     0.000120000         0.499069989         0.500000000
     0.500119984         0.500930011         0.500000000
     0.062619999         0.500109971         0.500000000
     0.562619984         0.499890029         0.500000000
     0.125119999         0.500720024         0.500000000
     0.625119984         0.499279976         0.500000000
     0.187619999         0.498560011         0.500000000
     0.687619984         0.501439989         0.500000000
     0.250120014         0.501940012         0.500000000
     0.750120044         0.498059988         0.500000000
     0.312620014         0.497850001         0.500000000
     0.812620044         0.502149999         0.500000000
     0.375120014         0.502030015         0.500000000
     0.875120044         0.497969985         0.500000000
     0.437620014         0.498400003         0.500000000
     0.937620044         0.501600027         0.500000000
     0.031369999         0.997910023         0.500000000
     0.531369984         0.002090000         0.500000000
     0.093869999         0.002130000         0.500000000
     0.593869984         0.997870028         0.500000000
     0.156369999         0.998149991         0.500000000
     0.656369984         0.001850000         0.500000000
     0.218869999         0.001290000         0.500000000
     0.718869984         0.998709977         0.500000000
     0.281370014         0.999469995         0.500000000
     0.781370044         0.000530000         0.500000000
     0.343870014         0.999689996         0.500000000
     0.843870044         0.000310000         0.500000000
     0.406370014         0.001100000         0.500000000
     0.906370044         0.998899996         0.500000000
     0.468870014         0.998269975         0.500000000
     0.968870044         0.001730000         0.500000000
     0.984499991         0.248300001         0.500000000
     0.484499991         0.751699984         0.500000000
     0.046969999         0.251590014         0.500000000
     0.546970010         0.748409986         0.500000000
     0.109520003         0.248769999         0.500000000
     0.609520018         0.751230001         0.500000000
     0.171949998         0.250690013         0.500000000
     0.671949983         0.749310017         0.500000000
     0.234530002         0.249950007         0.500000000
     0.734529972         0.750050008         0.500000000
     0.296959996         0.249390006         0.500000000
     0.796959996         0.750609994         0.500000000
     0.359510005         0.251170009         0.500000000
     0.859510005         0.748829961         0.500000000
     0.421990007         0.248449996         0.500000000
     0.921990037         0.751550019         0.500000000
     0.484479994         0.251700014         0.500000000
     0.984480023         0.748299956         0.500000000
     0.547010005         0.248410001         0.500000000
     0.047010005         0.751590014         0.500000000
     0.609459996         0.251230001         0.500000000
     0.109459996         0.748769999         0.500000000
     0.672029972         0.249310002         0.500000000
     0.172029972         0.750689983         0.500000000
     0.734459996         0.250050008         0.500000000
     0.234459996         0.749949992         0.500000000
     0.797020018         0.250609994         0.500000000
     0.297020018         0.749390006         0.500000000
     0.859470010         0.248830006         0.500000000
     0.359470010         0.751169980         0.500000000
     0.921999991         0.251549989         0.500000000
     0.421999991         0.748450041         0.500000000
     0.015710000         0.749719977         0.500000000
     0.515709996         0.250280023         0.500000000
     0.078270003         0.750899971         0.500000000
     0.578270018         0.249100029         0.500000000
     0.140729994         0.748610020         0.500000000
     0.640730023         0.251389980         0.500000000
     0.203240007         0.751659989         0.500000000
     0.703240037         0.248340011         0.500000000
     0.265760005         0.748319983         0.500000000
     0.765760005         0.251680017         0.500000000
     0.328209996         0.751439989         0.500000000
     0.828209996         0.248560011         0.500000000
     0.390780002         0.749019980         0.500000000
     0.890779972         0.250980020         0.500000000
     0.453200012         0.750379980         0.500000000
     0.953199983         0.249620020         0.500000000
     0.515779972         0.750280023         0.500000000
     0.015779972         0.249719977         0.500000000
     0.578220010         0.749100029         0.500000000
     0.078220010         0.250899971         0.500000000
     0.640749991         0.751389980         0.500000000
     0.140749991         0.248610020         0.500000000
     0.703239977         0.748340011         0.500000000
     0.203239977         0.251659989         0.500000000
     0.765730023         0.751680017         0.500000000
     0.265730023         0.248319983         0.500000000
     0.828270018         0.748560011         0.500000000
     0.328270018         0.251439989         0.500000000
     0.890709996         0.750980020         0.500000000
     0.390709996         0.249019980         0.500000000
     0.953279972         0.749620020         0.500000000
     0.453280002         0.250379980         0.500000000
     0.000120000         0.498560011         0.000000000
     0.500119984         0.501439989         0.000000000
     0.062619999         0.501879990         0.000000000
     0.562619984         0.498120010         0.000000000
     0.125119999         0.497979999         0.000000000
     0.625119984         0.502020001         0.000000000
     0.187619999         0.501860023         0.000000000
     0.687619984         0.498139977         0.000000000
     0.250120014         0.498580009         0.000000000
     0.750120044         0.501420021         0.000000000
     0.312620014         0.500760019         0.000000000
     0.812620044         0.499239981         0.000000000
     0.375120014         0.500020027         0.000000000
     0.875120044         0.499979973         0.000000000
     0.437620014         0.499210000         0.000000000
     0.937620044         0.500790000         0.000000000
     0.031369999         0.001110000         0.000000000
     0.531369984         0.998889983         0.000000000
     0.093869999         0.999620020         0.000000000
     0.593869984         0.000380000         0.000000000
     0.156369999         0.999589980         0.000000000
     0.656369984         0.000410000         0.000000000
     0.218869999         0.001140000         0.000000000
     0.718869984         0.998860002         0.000000000
     0.281370014         0.998310030         0.000000000
     0.781370044         0.001690000         0.000000000
     0.343870014         0.001990000         0.000000000
     0.843870044         0.998009980         0.000000000
     0.406370014         0.998019993         0.000000000
     0.906370044         0.001980000         0.000000000
     0.468870014         0.001680000         0.000000000
     0.968870044         0.998319983         0.000000000
