isodistort-output
1.0
       89.4772109985         0.0000000000         0.0000000000
        0.0000000000         5.5923299789         0.0000000000
        0.0000000000         0.0000000000         3.9165399075
   Sr   Ti    O
   32   32   96
Direct
     0.968869984         0.499350011         0.000000000
     0.468870014         0.500649989         0.000000000
     0.031369999         0.498409986         0.000000000
     0.531369984         0.501590014         0.000000000
     0.093869999         0.499430001         0.000000000
     0.593869984         0.500569999         0.000000000
     0.156369999         0.501150012         0.000000000
     0.656369984         0.498849988         0.000000000
     0.218869999         0.501450002         0.000000000
     0.718869984         0.498549998         0.000000000
     0.281370014         0.499960005         0.000000000
     0.781370044         0.500039995         0.000000000
     0.343870014         0.498510003         0.000000000
     0.843870044         0.501489997         0.000000000
     0.406370014         0.498899996         0.000000000
     0.906370044         0.501100004         0.000000000
     0.000120000         0.001350000         0.000000000
     0.500119984         0.998650014         0.000000000
     0.062619999         0.001300000         0.000000000
     0.562619984         0.998700023         0.000000000
     0.125119999         0.999650002         0.000000000
     0.625119984         0.000350000         0.000000000
     0.187619999         0.998430014         0.000000000
     0.687619984         0.001570000         0.000000000
     0.250120014         0.999149978         0.000000000
     0.750120044         0.000850000         0.000000000
     0.312620014         0.000920000         0.000000000
     0.812620044         0.999080002         0.000000000
     0.375120014         0.001550000         0.000000000
     0.875120044         0.998449981         0.000000000
     0.437620014         0.000270000         0.000000000
     0.937620044         0.999729991         0.000000000
     0.000120000         0.500469983         0.500000000
     0.500119984         0.499530017         0.500000000
     0.062619999         0.500500023         0.500000000
     0.562619984         0.499499977         0.500000000
     0.125119999         0.499909997         0.500000000
     0.625119984         0.500090003         0.500000000
     0.187619999         0.499430001         0.500000000
     0.687619984         0.500569999         0.500000000
     0.250120014         0.499650002         0.500000000
     0.750120044         0.500349998         0.500000000
     0.312620014         0.500299990         0.500000000
     0.812620044         0.499700010         0.500000000
     0.375120014         0.500580013         0.500000000
     0.875120044         0.499419987         0.500000000
     0.437620014         0.500140011         0.500000000
     0.937620044         0.499859989         0.500000000
     0.031369999         0.999409974         0.500000000
     0.531369984         0.000590000         0.500000000
     0.093869999         0.999750018         0.500000000
     0.593869984         0.000250000         0.500000000
     0.156369999         0.000400000         0.500000000
     0.656369984         0.999599993         0.500000000
     0.218869999         0.000550000         0.500000000
     0.718869984         0.999450028         0.500000000
     0.281370014         0.000030000         0.500000000
     0.781370044         0.999970019         0.500000000
     0.343870014         0.999469995         0.500000000
     0.843870044         0.000530000         0.500000000
     0.406370014         0.999570012         0.500000000
     0.906370044         0.000430000         0.500000000
     0.468870014         0.000200000         0.500000000
     0.968870044         0.999800026         0.500000000
     0.984520018         0.249730006         0.500000000
     0.484519988         0.750270009         0.500000000
     0.046999998         0.250140011         0.500000000
     0.546999991         0.749859989         0.500000000
     0.109480001         0.250369996         0.500000000
     0.609480023         0.749629974         0.500000000
     0.171969995         0.250149995         0.500000000
     0.671970010         0.749850035         0.500000000
     0.234490007         0.249740005         0.500000000
     0.734490037         0.750259995         0.500000000
     0.297010005         0.249650002         0.500000000
     0.797010005         0.750349998         0.500000000
     0.359510005         0.249990001         0.500000000
     0.859510005         0.750010014         0.500000000
     0.421979994         0.250340015         0.500000000
     0.921980023         0.749660015         0.500000000
     0.484470010         0.250270009         0.500000000
     0.984470010         0.749729991         0.500000000
     0.546980023         0.249860004         0.500000000
     0.046980023         0.750140011         0.500000000
     0.609510005         0.249630004         0.500000000
     0.109510005         0.750370026         0.500000000
     0.672010005         0.249850005         0.500000000
     0.172010005         0.750149965         0.500000000
     0.734489977         0.250259995         0.500000000
     0.234489977         0.749740005         0.500000000
     0.796970010         0.250349998         0.500000000
     0.296970010         0.749650002         0.500000000
     0.859480023         0.250010014         0.500000000
     0.359480023         0.749989986         0.500000000
     0.921999991         0.249660000         0.500000000
     0.421999991         0.750339985         0.500000000
     0.015720000         0.750079989         0.500000000
     0.515720010         0.249920011         0.500000000
     0.078249998         0.749700010         0.500000000
     0.578249991         0.250299990         0.500000000
     0.140770003         0.749689996         0.500000000
     0.640770018         0.250310004         0.500000000
     0.203250006         0.750069976         0.500000000
     0.703249991         0.249930024         0.500000000
     0.265729994         0.750360012         0.500000000
     0.765730023         0.249639988         0.500000000
     0.328220010         0.750209987         0.500000000
     0.828220010         0.249790013         0.500000000
     0.390740007         0.749800026         0.500000000
     0.890740037         0.250199974         0.500000000
     0.453260005         0.749629974         0.500000000
     0.953260005         0.250370026         0.500000000
     0.515760005         0.749920011         0.500000000
     0.015760005         0.250079989         0.500000000
     0.578239977         0.750299990         0.500000000
     0.078239977         0.249700010         0.500000000
     0.640720010         0.750310004         0.500000000
     0.140720010         0.249689996         0.500000000
     0.703230023         0.749930024         0.500000000
     0.203230023         0.250069976         0.500000000
     0.765760005         0.749639988         0.500000000
     0.265760005         0.250360012         0.500000000
     0.828260005         0.749790013         0.500000000
     0.328260005         0.250209987         0.500000000
     0.890749991         0.750199974         0.500000000
     0.390749991         0.249800026         0.500000000
     0.953220010         0.750370026         0.500000000
     0.453220010         0.249629974         0.500000000
     0.000120000         0.499350011         0.000000000
     0.500119984         0.500649989         0.000000000
     0.062619999         0.499550015         0.000000000
     0.562619984         0.500450015         0.000000000
     0.125119999         0.500310004         0.000000000
     0.625119984         0.499689996         0.000000000
     0.187619999         0.500689983         0.000000000
     0.687619984         0.499310017         0.000000000
     0.250120014         0.500209987         0.000000000
     0.750120044         0.499790013         0.000000000
     0.312620014         0.499480009         0.000000000
     0.812620044         0.500519991         0.000000000
     0.375120014         0.499390006         0.000000000
     0.875120044         0.500609994         0.000000000
     0.437620014         0.500050008         0.000000000
     0.937620044         0.499949992         0.000000000
     0.031369999         0.000660000         0.000000000
     0.531369984         0.999339998         0.000000000
     0.093869999         0.000080000         0.000000000
     0.593869984         0.999920011         0.000000000
     0.156369999         0.999400020         0.000000000
     0.656369984         0.000600000         0.000000000
     0.218869999         0.999459982         0.000000000
     0.718869984         0.000540000         0.000000000
     0.281370014         0.000190000         0.000000000
     0.781370044         0.999809980         0.000000000
     0.343870014         0.000680000         0.000000000
     0.843870044         0.999319971         0.000000000
     0.406370014         0.000340000         0.000000000
     0.906370044         0.999660015         0.000000000
     0.468870014         0.999570012         0.000000000
     0.968870044         0.000430000         0.000000000
