generated by phonopy
   1.0
    11.1846860380000006    0.0000000000000000    0.0000000000000000
     0.0000000000000000   11.1846860380000006    0.0000000000000000
     0.0000000000000000    0.0000000000000000    7.7885526589423826
Pb Ti O
  16   16   48
Direct
  0.0000000000000000  0.0000000000000000  0.0000000000000000
  0.5000000000000000  0.0000000000000000  0.0000000000000000
  0.0000000000000000  0.5000000000000000  0.0000000000000000
  0.5000000000000000  0.5000000000000000  0.0000000000000000
  0.0000000000000000  0.0000000000000000  0.5000000000000000
  0.5000000000000000  0.0000000000000000  0.5000000000000000
  0.0000000000000000  0.5000000000000000  0.5000000000000000
  0.5000000000000000  0.5000000000000000  0.5000000000000000
  0.2500000000000000  0.2500000000000000  0.0000000000000000
  0.7500000000000000  0.2500000000000000  0.0000000000000000
  0.2500000000000000  0.7500000000000000  0.0000000000000000
  0.7500000000000000  0.7500000000000000  0.0000000000000000
  0.2500000000000000  0.2500000000000000  0.5000000000000000
  0.7500000000000000  0.2500000000000000  0.5000000000000000
  0.2500000000000000  0.7500000000000000  0.5000000000000000
  0.7500000000000000  0.7500000000000000  0.5000000000000000
  0.2500000000000000  0.0000000000000000  0.2500000000000000
  0.7500000000000000  0.0000000000000000  0.2500000000000000
  0.2500000000000000  0.5000000000000000  0.2500000000000000
  0.7500000000000000  0.5000000000000000  0.2500000000000000
  0.2500000000000000  0.0000000000000000  0.7500000000000000
  0.7500000000000000  0.0000000000000000  0.7500000000000000
  0.2500000000000000  0.5000000000000000  0.7500000000000000
  0.7500000000000000  0.5000000000000000  0.7500000000000000
  0.0000000000000000  0.2500000000000000  0.2500000000000000
  0.5000000000000000  0.2500000000000000  0.2500000000000000
  0.0000000000000000  0.7500000000000000  0.2500000000000000
  0.5000000000000000  0.7500000000000000  0.2500000000000000
  0.0000000000000000  0.2500000000000000  0.7500000000000000
  0.5000000000000000  0.2500000000000000  0.7500000000000000
  0.0000000000000000  0.7500000000000000  0.7500000000000000
  0.5000000000000000  0.7500000000000000  0.7500000000000000
  0.1250000000000000  0.1250000000000000  0.2500000000000000
  0.6250000000000001  0.1250000000000000  0.2500000000000000
  0.1250000000000000  0.6250000000000001  0.2500000000000000
  0.6250000000000001  0.6250000000000001  0.2500000000000000
  0.1250000000000000  0.1250000000000000  0.7500000000000000
  0.6250000000000001  0.1250000000000000  0.7500000000000000
  0.1250000000000000  0.6250000000000001  0.7500000000000000
  0.6250000000000001  0.6250000000000001  0.7500000000000000
  0.3750000000000000  0.3750000000000000  0.2500000000000000
  0.8750000000000001  0.3750000000000000  0.2500000000000000
  0.3750000000000000  0.8750000000000001  0.2500000000000000
  0.8750000000000001  0.8750000000000001  0.2500000000000000
  0.3750000000000000  0.3750000000000000  0.7500000000000000
  0.8750000000000001  0.3750000000000000  0.7500000000000000
  0.3750000000000000  0.8750000000000001  0.7500000000000000
  0.8750000000000001  0.8750000000000001  0.7500000000000000
  0.1250000000000000  0.3750000000000000  0.2500000000000000
  0.6250000000000001  0.3750000000000000  0.2500000000000000
  0.1250000000000000  0.8750000000000001  0.2500000000000000
  0.6250000000000001  0.8750000000000001  0.2500000000000000
  0.1250000000000000  0.3750000000000000  0.7500000000000000
  0.6250000000000001  0.3750000000000000  0.7500000000000000
  0.1250000000000000  0.8750000000000001  0.7500000000000000
  0.6250000000000001  0.8750000000000001  0.7500000000000000
  0.3750000000000000  0.1250000000000000  0.2500000000000000
  0.8750000000000001  0.1250000000000000  0.2500000000000000
  0.3750000000000000  0.6250000000000001  0.2500000000000000
  0.8750000000000001  0.6250000000000001  0.2500000000000000
  0.3750000000000000  0.1250000000000000  0.7500000000000000
  0.8750000000000001  0.1250000000000000  0.7500000000000000
  0.3750000000000000  0.6250000000000001  0.7500000000000000
  0.8750000000000001  0.6250000000000001  0.7500000000000000
  0.2507337115487509  0.0000000000000000  0.0007337115487509
  0.7500000000000000  0.0000000000000000  0.0000000000000000
  0.2500000000000000  0.5000000000000000  0.0000000000000000
  0.7500000000000000  0.5000000000000000  0.0000000000000000
  0.2500000000000000  0.0000000000000000  0.5000000000000000
  0.7500000000000000  0.0000000000000000  0.5000000000000000
  0.2500000000000000  0.5000000000000000  0.5000000000000000
  0.7500000000000000  0.5000000000000000  0.5000000000000000
  0.0000000000000000  0.2500000000000000  0.0000000000000000
  0.5000000000000000  0.2500000000000000  0.0000000000000000
  0.0000000000000000  0.7500000000000000  0.0000000000000000
  0.5000000000000000  0.7500000000000000  0.0000000000000000
  0.0000000000000000  0.2500000000000000  0.5000000000000000
  0.5000000000000000  0.2500000000000000  0.5000000000000000
  0.0000000000000000  0.7500000000000000  0.5000000000000000
  0.5000000000000000  0.7500000000000000  0.5000000000000000
