isodistort-output
1.0
       89.4772109985         0.0000000000         0.0000000000
        0.0000000000         5.5923299789         0.0000000000
        0.0000000000         0.0000000000         3.9165399075
   Sr   Ti    O
   32   32   96
Direct
     0.968869984         0.505479991         0.000000000
     0.468870014         0.494520009         0.000000000
     0.031369999         0.503289998         0.000000000
     0.531369984         0.496710002         0.000000000
     0.093869999         0.492000014         0.000000000
     0.593869984         0.508000016         0.000000000
     0.156369999         0.502830029         0.000000000
     0.656369984         0.497169971         0.000000000
     0.218869999         0.505829990         0.000000000
     0.718869984         0.494170010         0.000000000
     0.281370014         0.492700011         0.000000000
     0.781370044         0.507300019         0.000000000
     0.343870014         0.499749988         0.000000000
     0.843870044         0.500249982         0.000000000
     0.406370014         0.507489979         0.000000000
     0.906370044         0.492510021         0.000000000
     0.000120000         0.007890000         0.000000000
     0.500119984         0.992110014         0.000000000
     0.062619999         0.995760024         0.000000000
     0.562619984         0.004240000         0.000000000
     0.125119999         0.995350003         0.000000000
     0.625119984         0.004650000         0.000000000
     0.187619999         0.007800000         0.000000000
     0.687619984         0.992200017         0.000000000
     0.250120014         0.998679996         0.000000000
     0.750120044         0.001320000         0.000000000
     0.312620014         0.993210018         0.000000000
     0.812620044         0.006790000         0.000000000
     0.375120014         0.006510000         0.000000000
     0.875120044         0.993489981         0.000000000
     0.437620014         0.001800000         0.000000000
     0.937620044         0.998199999         0.000000000
     0.000120000         0.504170001         0.500000000
     0.500119984         0.495829999         0.500000000
     0.062619999         0.496479988         0.500000000
     0.562619984         0.503520012         0.500000000
     0.125119999         0.498519987         0.500000000
     0.625119984         0.501479983         0.500000000
     0.187619999         0.504649997         0.500000000
     0.687619984         0.495350003         0.500000000
     0.250120014         0.497920007         0.500000000
     0.750120044         0.502079964         0.500000000
     0.312620014         0.496939987         0.500000000
     0.812620044         0.503059983         0.500000000
     0.375120014         0.504419982         0.500000000
     0.875120044         0.495580018         0.500000000
     0.437620014         0.499680012         0.500000000
     0.937620044         0.500319958         0.500000000
     0.031369999         0.000590000         0.500000000
     0.531369984         0.999409974         0.500000000
     0.093869999         0.995500028         0.500000000
     0.593869984         0.004500000         0.500000000
     0.156369999         0.002850000         0.500000000
     0.656369984         0.997150004         0.500000000
     0.218869999         0.002320000         0.500000000
     0.718869984         0.997680008         0.500000000
     0.281370014         0.995379984         0.500000000
     0.781370044         0.004620000         0.500000000
     0.343870014         0.001220000         0.500000000
     0.843870044         0.998780012         0.500000000
     0.406370014         0.003690000         0.500000000
     0.906370044         0.996309996         0.500000000
     0.468870014         0.995949984         0.500000000
     0.968870044         0.004050000         0.500000000
     0.984539986         0.250939995         0.500000000
     0.484539986         0.749060035         0.500000000
     0.046990000         0.246089995         0.500000000
     0.546989977         0.753910005         0.500000000
     0.109449998         0.252050012         0.500000000
     0.609449983         0.747949958         0.500000000
     0.172030002         0.252339989         0.500000000
     0.672029972         0.747660041         0.500000000
     0.234510005         0.246160001         0.500000000
     0.734510005         0.753839970         0.500000000
     0.296939999         0.250600010         0.500000000
     0.796939969         0.749400020         0.500000000
     0.359510005         0.253380001         0.500000000
     0.859510005         0.746619999         0.500000000
     0.422019988         0.246810004         0.500000000
     0.922019958         0.753189981         0.500000000
     0.484450012         0.249060005         0.500000000
     0.984449983         0.750939965         0.500000000
     0.546989977         0.253910005         0.500000000
     0.046989977         0.746089995         0.500000000
     0.609539986         0.247950003         0.500000000
     0.109539986         0.752049983         0.500000000
     0.671959996         0.247659996         0.500000000
     0.171959996         0.752340019         0.500000000
     0.734480023         0.253839999         0.500000000
     0.234480023         0.746160030         0.500000000
     0.797039986         0.249400005         0.500000000
     0.297039986         0.750599980         0.500000000
     0.859470010         0.246619999         0.500000000
     0.359470010         0.753380001         0.500000000
     0.921959996         0.253190011         0.500000000
     0.421959996         0.746809959         0.500000000
     0.015780000         0.747330010         0.500000000
     0.515779972         0.252669990         0.500000000
     0.078199998         0.748329997         0.500000000
     0.578199983         0.251670003         0.500000000
     0.140729994         0.753950000         0.500000000
     0.640730023         0.246050000         0.500000000
     0.203290001         0.748640001         0.500000000
     0.703289986         0.251359999         0.500000000
     0.265709996         0.747089982         0.500000000
     0.765709996         0.252910018         0.500000000
     0.328220010         0.753589988         0.500000000
     0.828220010         0.246410012         0.500000000
     0.390789986         0.750169992         0.500000000
     0.890789986         0.249830008         0.500000000
     0.453229994         0.746280015         0.500000000
     0.953230023         0.253719985         0.500000000
     0.515699983         0.752669990         0.500000000
     0.015699983         0.247330010         0.500000000
     0.578279972         0.751670003         0.500000000
     0.078279972         0.248329997         0.500000000
     0.640749991         0.746050000         0.500000000
     0.140749991         0.253950000         0.500000000
     0.703199983         0.751359999         0.500000000
     0.203199983         0.248640001         0.500000000
     0.765770018         0.752910018         0.500000000
     0.265770018         0.247089982         0.500000000
     0.828270018         0.746410012         0.500000000
     0.328270018         0.253589988         0.500000000
     0.890699983         0.749830008         0.500000000
     0.390699983         0.250169992         0.500000000
     0.953249991         0.753719985         0.500000000
     0.453249991         0.246280015         0.500000000
     0.000120000         0.498679996         0.000000000
     0.500119984         0.501320004         0.000000000
     0.062619999         0.496740013         0.000000000
     0.562619984         0.503260016         0.000000000
     0.125119999         0.503809988         0.000000000
     0.625119984         0.496190012         0.000000000
     0.187619999         0.500339985         0.000000000
     0.687619984         0.499660015         0.000000000
     0.250120014         0.495929986         0.000000000
     0.750120044         0.504070044         0.000000000
     0.312620014         0.502780020         0.000000000
     0.812620044         0.497219980         0.000000000
     0.375120014         0.501950026         0.000000000
     0.875120044         0.498049974         0.000000000
     0.437620014         0.495730013         0.000000000
     0.937620044         0.504269958         0.000000000
     0.031369999         0.995880008         0.000000000
     0.531369984         0.004120000         0.000000000
     0.093869999         0.000500000         0.000000000
     0.593869984         0.999499977         0.000000000
     0.156369999         0.003740000         0.000000000
     0.656369984         0.996259987         0.000000000
     0.218869999         0.996640027         0.000000000
     0.718869984         0.003360000         0.000000000
     0.281370014         0.998830020         0.000000000
     0.781370044         0.001170000         0.000000000
     0.343870014         0.004250000         0.000000000
     0.843870044         0.995750010         0.000000000
     0.406370014         0.997910023         0.000000000
     0.906370044         0.002090000         0.000000000
     0.468870014         0.997340024         0.000000000
     0.968870044         0.002660000         0.000000000
