isodistort-output
1.0
       89.4772109985         0.0000000000         0.0000000000
        0.0000000000         5.5923299789         0.0000000000
        0.0000000000         0.0000000000         3.9165399075
   Sr   Ti    O
   32   32   96
Direct
     0.968869984         0.497999996         0.000000000
     0.468870014         0.501999974         0.000000000
     0.031369999         0.501060009         0.000000000
     0.531369984         0.498939991         0.000000000
     0.093869999         0.501190007         0.000000000
     0.593869984         0.498809993         0.000000000
     0.156369999         0.498030007         0.000000000
     0.656369984         0.501969993         0.000000000
     0.218869999         0.500320017         0.000000000
     0.718869984         0.499679983         0.000000000
     0.281370014         0.501730025         0.000000000
     0.781370044         0.498269975         0.000000000
     0.343870014         0.498360008         0.000000000
     0.843870044         0.501639962         0.000000000
     0.406370014         0.499529988         0.000000000
     0.906370044         0.500470042         0.000000000
     0.000120000         0.000850000         0.000000000
     0.500119984         0.999149978         0.000000000
     0.062619999         0.997969985         0.000000000
     0.562619984         0.002030000         0.000000000
     0.125119999         0.000700000         0.000000000
     0.625119984         0.999300003         0.000000000
     0.187619999         0.001490000         0.000000000
     0.687619984         0.998510003         0.000000000
     0.250120014         0.998160005         0.000000000
     0.750120044         0.001840000         0.000000000
     0.312620014         0.999920011         0.000000000
     0.812620044         0.000080000         0.000000000
     0.375120014         0.001900000         0.000000000
     0.875120044         0.998099983         0.000000000
     0.437620014         0.998619974         0.000000000
     0.937620044         0.001380000         0.000000000
     0.000120000         0.500419974         0.500000000
     0.500119984         0.499580026         0.500000000
     0.062619999         0.499220014         0.500000000
     0.562619984         0.500779986         0.500000000
     0.125119999         0.500169992         0.500000000
     0.625119984         0.499830008         0.500000000
     0.187619999         0.500639975         0.500000000
     0.687619984         0.499360025         0.500000000
     0.250120014         0.499330014         0.500000000
     0.750120044         0.500669956         0.500000000
     0.312620014         0.499870002         0.500000000
     0.812620044         0.500129998         0.500000000
     0.375120014         0.500769973         0.500000000
     0.875120044         0.499230027         0.500000000
     0.437620014         0.499550015         0.500000000
     0.937620044         0.500450015         0.500000000
     0.031369999         0.000320000         0.500000000
     0.531369984         0.999679983         0.500000000
     0.093869999         0.000540000         0.500000000
     0.593869984         0.999459982         0.500000000
     0.156369999         0.999260008         0.500000000
     0.656369984         0.000740000         0.500000000
     0.218869999         0.000020000         0.500000000
     0.718869984         0.999979973         0.500000000
     0.281370014         0.000720000         0.500000000
     0.781370044         0.999279976         0.500000000
     0.343870014         0.999430001         0.500000000
     0.843870044         0.000570000         0.500000000
     0.406370014         0.999719977         0.500000000
     0.906370044         0.000280000         0.500000000
     0.468870014         0.000790000         0.500000000
     0.968870044         0.999210000         0.500000000
     0.984489977         0.250510007         0.500000000
     0.484490007         0.749490023         0.500000000
     0.046969999         0.250059992         0.500000000
     0.546970010         0.749940038         0.500000000
     0.109509997         0.249439999         0.500000000
     0.609510005         0.750559986         0.500000000
     0.172000006         0.250369996         0.500000000
     0.671999991         0.749629974         0.500000000
     0.234469995         0.250279993         0.500000000
     0.734470010         0.749719977         0.500000000
     0.297010005         0.249420002         0.500000000
     0.797010005         0.750580013         0.500000000
     0.359510005         0.250169992         0.500000000
     0.859510005         0.749830008         0.500000000
     0.421970010         0.250449985         0.500000000
     0.921970010         0.749549985         0.500000000
     0.484499991         0.249489993         0.500000000
     0.984499991         0.750509977         0.500000000
     0.547010005         0.249939993         0.500000000
     0.047010005         0.750060022         0.500000000
     0.609470010         0.250559986         0.500000000
     0.109470010         0.749440014         0.500000000
     0.671989977         0.249630004         0.500000000
     0.171989977         0.750370026         0.500000000
     0.734520018         0.249720007         0.500000000
     0.234520018         0.750280023         0.500000000
     0.796980023         0.250580013         0.500000000
     0.296980023         0.749419987         0.500000000
     0.859480023         0.249829993         0.500000000
     0.359480023         0.750169992         0.500000000
     0.922020018         0.249550000         0.500000000
     0.422020018         0.750450015         0.500000000
     0.015769999         0.749480009         0.500000000
     0.515770018         0.250519991         0.500000000
     0.078240000         0.750450015         0.500000000
     0.578239977         0.249549985         0.500000000
     0.140719995         0.750169992         0.500000000
     0.640720010         0.249830008         0.500000000
     0.203260005         0.749419987         0.500000000
     0.703260005         0.250580013         0.500000000
     0.265749991         0.750270009         0.500000000
     0.765749991         0.249729991         0.500000000
     0.328220010         0.750370026         0.500000000
     0.828220010         0.249629974         0.500000000
     0.390749991         0.749440014         0.500000000
     0.890749991         0.250559986         0.500000000
     0.453260005         0.750050008         0.500000000
     0.953260005         0.249949992         0.500000000
     0.515720010         0.750519991         0.500000000
     0.015720010         0.249480009         0.500000000
     0.578239977         0.749549985         0.500000000
     0.078239977         0.250450015         0.500000000
     0.640770018         0.749830008         0.500000000
     0.140770018         0.250169992         0.500000000
     0.703220010         0.750580013         0.500000000
     0.203220010         0.249419987         0.500000000
     0.765730023         0.749729991         0.500000000
     0.265730023         0.250270009         0.500000000
     0.828270018         0.749629974         0.500000000
     0.328270018         0.250370026         0.500000000
     0.890730023         0.750559986         0.500000000
     0.390730023         0.249440014         0.500000000
     0.953220010         0.749949992         0.500000000
     0.453220010         0.250050008         0.500000000
     0.000120000         0.500020027         0.000000000
     0.500119984         0.499979973         0.000000000
     0.062619999         0.500779986         0.000000000
     0.562619984         0.499220014         0.000000000
     0.125119999         0.499379992         0.000000000
     0.625119984         0.500620008         0.000000000
     0.187619999         0.499689996         0.000000000
     0.687619984         0.500310004         0.000000000
     0.250120014         0.500859976         0.000000000
     0.750120044         0.499140024         0.000000000
     0.312620014         0.499659985         0.000000000
     0.812620044         0.500339985         0.000000000
     0.375120014         0.499410003         0.000000000
     0.875120044         0.500589967         0.000000000
     0.437620014         0.500800014         0.000000000
     0.937620044         0.499199986         0.000000000
     0.031369999         0.999279976         0.000000000
     0.531369984         0.000720000         0.000000000
     0.093869999         0.999849975         0.000000000
     0.593869984         0.000150000         0.000000000
     0.156369999         0.000840000         0.000000000
     0.656369984         0.999159992         0.000000000
     0.218869999         0.999509990         0.000000000
     0.718869984         0.000490000         0.000000000
     0.281370014         0.999539971         0.000000000
     0.781370044         0.000460000         0.000000000
     0.343870014         0.000840000         0.000000000
     0.843870044         0.999159992         0.000000000
     0.406370014         0.999819994         0.000000000
     0.906370044         0.000180000         0.000000000
     0.468870014         0.999300003         0.000000000
     0.968870044         0.000700000         0.000000000
