h Atomsk by yanli on                    
   1.00000000000000     
    89.4774883099999983    0.0000000000000000    0.0000000000000000
     0.0000000000000000    5.5923430190000003    0.0000000000000000
     0.0000000000000000    0.0000000000000000    3.9165416495447984
   Pb   Ti   O 
    32    32    96
Direct
  0.9993837947030663  0.8667104906168698  0.0130096381814298
  0.4993837947030663  0.1332895141191885  0.0130096381814298
  0.0619165594302384  0.9090664670469635  0.0130096381814298
  0.5619165592328996  0.0909335376890954  0.0130096381814298
  0.1244710038890128  0.9523341580779835  0.0130096381814298
  0.6244710041850176  0.0476658482367728  0.0130096381814298
  0.1870293961717596  0.9962835929028467  0.0130096381814298
  0.6870293960730940  0.0037164102545213  0.0130096381814298
  0.2495856874768334  0.0395988483470441  0.0130096381814298
  0.7495856873781528  0.9604011563890147  0.0130096381814298
  0.3121291637695719  0.0822449466774024  0.0130096381814298
  0.8121291638682308  0.9177550580586563  0.0130096381814298
  0.3746021267367489  0.1310503529889535  0.0130096381814298
  0.8746021267367560  0.8689496517470988  0.0130096381814298
  0.4369418894141286  0.1710412490116393  0.0130096381814298
  0.9369418896114606  0.8289587573031102  0.0130096381814298
  0.0306457078440822  0.3877273297498748  0.0130096381814298
  0.5306457079427480  0.6122726765648674  0.0130096381814298
  0.0931917954801197  0.4305842410032022  0.0130096381814298
  0.5931917956774657  0.5694157637328638  0.0130096381814298
  0.1557504249655900  0.4742851183908964  0.0130096381814298
  0.6557504246695776  0.5257148895025370  0.0130096381814298
  0.2183066125844167  0.5180291122603684  0.0130096381814298
  0.7183066126830824  0.4819708940543815  0.0130096381814298
  0.2808626959784998  0.5610725586877485  0.0130096381814298
  0.7808626958798416  0.4389274476270011  0.0130096381814298
  0.3434235991583285  0.6038379547273262  0.0130096381814298
  0.8434235994543263  0.3961620515874238  0.0130096381814298
  0.4058086330502141  0.6739677272422329  0.0130096381814298
  0.9058086327542093  0.3260322806512001  0.0130096381814298
  0.4681402735167750  0.6535774833991036  0.0130096381814298
  0.9681402737141142  0.3464225229156457  0.0130096381814298
  0.0317038354857120  0.9039011354289583  0.5130096369201027
  0.5317038353870602  0.0960988677284086  0.5130096369201027
  0.0942548061666296  0.9466635485778258  0.5130096369201027
  0.5942548066599735  0.0533364577369171  0.5130096369201027
  0.1568104484040449  0.9903915388754918  0.5130096369201027
  0.6568104474173709  0.0096084595458174  0.5130096369201027
  0.2193687341026259  0.0341105534444941  0.5130096369201027
  0.7193687346946289  0.9658894512915717  0.5130096369201027
  0.2819207866186388  0.0771186888406350  0.5130096369201027
  0.7819207862239531  0.9228813158954310  0.5130096369201027
  0.3444455372514477  0.1191361941782322  0.5130096369201027
  0.8444455382381215  0.8808638074004517  0.5130096369201027
  0.4067362005749577  0.1604237018992540  0.5130096369201027
  0.9067361990949401  0.8395762902073194  0.5130096369201027
  0.4691673901197078  0.1368866793008491  0.5130096369201027
  0.9691673906130519  0.8631133238565327  0.5130096369201027
  0.0629787289525590  0.4251931530498524  0.5130096369201027
  0.5629787282618898  0.5748068548435806  0.5130096369201027
  0.1255324621984216  0.4684162245656157  0.5130096369201027
  0.6255324633824345  0.5315837817491263  0.5130096369201027
  0.1880897658596447  0.5123519419409490  0.5130096369201027
  0.6880897654649746  0.4876480691098521  0.5130096369201027
  0.2506452534950696  0.5556837088928539  0.5130096369201027
  0.7506452531990710  0.4443162974219032  0.5130096369201027
  0.3131879420067952  0.5981495463479845  0.5130096369201027
  0.8131879424014657  0.4018504631241404  0.5130096369201027
  0.3756702415477376  0.6406038239950327  0.5130096369201027
  0.8756702415477375  0.3593961838984077  0.5130096369201027
  0.4379114682270495  0.6538582916222848  0.5130096369201027
  0.9379114684243750  0.3461417131137736  0.5130096369201027
  0.5004322313216956  0.6169705804141673  0.5130096369201027
  0.0004322310256976  0.3830294290579508  0.5130096369201027
  0.0179178394623689  0.6707466013356284  0.5130096369201027
  0.5179178392650298  0.3292534049791284  0.5130096369201027
  0.0804683857478341  0.7136077464490795  0.5130096369201027
  0.5804683858465004  0.2863922582869790  0.5130096369201027
  0.1430259683347898  0.7573406249183502  0.5130096369201027
  0.6430259683347824  0.2426593829750837  0.5130096369201027
  0.2055798554595843  0.8010964223401704  0.5130096369201027
  0.7055798551635789  0.1989035871319539  0.5130096369201027
  0.2681372547364157  0.8439369873202043  0.5130096369201027
  0.7681372550324282  0.1560630158371704  0.5130096369201027
  0.3306916769968188  0.8844827279537650  0.5130096369201027
  0.8306916765034746  0.1155172830970434  0.5130096369201027
  0.3933505526373098  0.9001357232045738  0.5130096369201027
  0.8933505529333080  0.0998642799528009  0.5130096369201027
  0.4557583041329749  0.8638818408709397  0.5130096369201027
  0.9557583038369699  0.1361181686011779  0.5130096369201027
  0.5182872185043823  0.8223781671417530  0.5130096369201027
  0.0182872187017143  0.1776218360156217  0.5130096369201027
  0.5808361644415805  0.7795704552996020  0.5130096369201027
  0.0808361642442486  0.2204295525938387  0.5130096369201027
  0.6433951524836611  0.7358529058175443  0.5130096369201027
  0.1433951525823406  0.2641470989185148  0.5130096369201027
  0.7059519465017963  0.6921547937536302  0.5130096369201027
  0.2059519468964670  0.3078452078250609  0.5130096369201027
  0.7684981555465881  0.6493270042185045  0.5130096369201027
  0.2684981552505906  0.3506730036749362  0.5130096369201027
  0.8309918027299441  0.6091072922681616  0.5130096369201027
  0.3309918031246146  0.3908927093105152  0.5130096369201027
  0.8930351032382368  0.5932120996721575  0.5130096369201027
  0.3930351023502283  0.4067879161147098  0.5130096369201027
  0.9553966041847330  0.6288926734470475  0.5130096369201027
  0.4553966042834067  0.3711073312890107  0.5130096369201027
  0.0491885749924293  0.1921689816283224  0.5130096369201027
  0.5491885753871003  0.8078310199503684  0.5130096369201027
  0.1117421658213535  0.2354415947105998  0.5130096369201027
  0.6117421652293439  0.7645584179188926  0.5130096369201027
  0.1742985101278502  0.2793779050382498  0.5130096369201027
  0.6742985105225289  0.7206220949617504  0.5130096369201027
  0.2368506236499073  0.3227505773766907  0.5130096369201027
  0.7368506237485800  0.6772494257806767  0.5130096369201027
  0.2993831904104176  0.3650834202227836  0.5130096369201027
  0.7993831906077493  0.6349165845132889  0.5130096369201027
  0.3618717207100892  0.4018669466350118  0.5130096369201027
  0.8618717204140844  0.5981330628371202  0.5130096369201027
  0.4245631503961896  0.3829300168543111  0.5130096369201027
  0.9245631506921879  0.6170699863030638  0.5130096369201027
  0.4870242087836170  0.3433564769370754  0.5130096369201027
  0.9870242086849441  0.6566435277989829  0.5130096369201027
  0.5495649386891313  0.3009881031699655  0.5130096369201027
  0.0495649383931263  0.6990119047234601  0.5130096369201027
  0.6121191452099847  0.2578114921134551  0.5130096369201027
  0.1121191458019874  0.7421885078865308  0.5130096369201027
  0.6746805687963570  0.2138010155376108  0.5130096369201027
  0.1746805682043539  0.7861989970918811  0.5130096369201027
  0.7372340586228303  0.1704700688736422  0.5130096369201027
  0.2372340587214892  0.8295299374411077  0.5130096369201027
  0.7997794489175243  0.1281765773748925  0.5130096369201027
  0.2997794487201917  0.8718234289398569  0.5130096369201027
  0.8622558557107591  0.0915832917816852  0.5130096369201027
  0.3622558561054299  0.9084167097969983  0.5130096369201027
  0.9241055171585209  0.1100527218118376  0.5130096369201027
  0.4241055170598619  0.8899472860815963  0.5130096369201027
  0.9866466134712557  0.1496512208456968  0.5130096369201027
  0.4866466134712628  0.8503487838903614  0.5130096369201027
  0.0338651360844420  0.9362620173998475  0.0130096381814298
  0.5338651360844416  0.0637379889149018  0.0130096381814298
  0.0964161589705034  0.9792738324792816  0.0130096381814298
  0.5964161588718371  0.0207261738354603  0.0130096381814298
  0.1589748367225961  0.0230761069802455  0.0130096381814298
  0.6589748368212626  0.9769238993345047  0.0130096381814298
  0.2215317220976308  0.0666784079486690  0.0130096381814298
  0.7215317219989648  0.9333215983660808  0.0130096381814298
  0.2840868145243173  0.1092865511061760  0.0130096381814298
  0.7840868147216491  0.8907134536298897  0.0130096381814298
  0.3466415221085615  0.1485846722059720  0.0130096381814298
  0.8466415220098816  0.8514153341087696  0.0130096381814298
  0.4089781057892429  0.1443812241702671  0.0130096381814298
  0.9089781059865748  0.8556187821444826  0.0130096381814298
  0.4713419784304303  0.1058333570229530  0.0130096381814298
  0.9713419784304306  0.8941666492917962  0.0130096381814298
  0.0651396255394624  0.4577003525036777  0.0130096381814298
  0.5651396257367940  0.5422996522323882  0.0130096381814298
  0.1276929937116462  0.5011042901035684  0.0130096381814298
  0.6276929935143076  0.4988957162111811  0.0130096381814298
  0.1902524365978064  0.5449997931886396  0.0130096381814298
  0.6902524364991405  0.4550002131261101  0.0130096381814298
  0.2528069599022488  0.5881833051371007  0.0130096381814298
  0.7528069600009080  0.4118166995989508  0.0130096381814298
  0.3153534836897049  0.6298230498651753  0.0130096381814298
  0.8153534836897124  0.3701769564495672  0.0130096381814298
  0.3778209755177985  0.6600590524736144  0.0130096381814298
  0.8778209755177991  0.3399409522624509  0.0130096381814298
  0.4401051523140311  0.6259534650570295  0.0130096381814298
  0.9401051522153654  0.3740465412577207  0.0130096381814298
  0.5025961324255764  0.5849861017015289  0.0130096381814298
  0.0025961325242426  0.4150139030345300  0.0130096381814298
 
  0.00000000E+00  0.00000000E+00  0.00000000E+00
  0.00000000E+00  0.00000000E+00  0.00000000E+00
  0.00000000E+00  0.00000000E+00  0.00000000E+00
  0.00000000E+00  0.00000000E+00  0.00000000E+00
  0.00000000E+00  0.00000000E+00  0.00000000E+00
  0.00000000E+00  0.00000000E+00  0.00000000E+00
  0.00000000E+00  0.00000000E+00  0.00000000E+00
  0.00000000E+00  0.00000000E+00  0.00000000E+00
  0.00000000E+00  0.00000000E+00  0.00000000E+00
  0.00000000E+00  0.00000000E+00  0.00000000E+00
  0.00000000E+00  0.00000000E+00  0.00000000E+00
  0.00000000E+00  0.00000000E+00  0.00000000E+00
  0.00000000E+00  0.00000000E+00  0.00000000E+00
  0.00000000E+00  0.00000000E+00  0.00000000E+00
  0.00000000E+00  0.00000000E+00  0.00000000E+00
  0.00000000E+00  0.00000000E+00  0.00000000E+00
  0.00000000E+00  0.00000000E+00  0.00000000E+00
  0.00000000E+00  0.00000000E+00  0.00000000E+00
  0.00000000E+00  0.00000000E+00  0.00000000E+00
  0.00000000E+00  0.00000000E+00  0.00000000E+00
  0.00000000E+00  0.00000000E+00  0.00000000E+00
  0.00000000E+00  0.00000000E+00  0.00000000E+00
  0.00000000E+00  0.00000000E+00  0.00000000E+00
  0.00000000E+00  0.00000000E+00  0.00000000E+00
  0.00000000E+00  0.00000000E+00  0.00000000E+00
  0.00000000E+00  0.00000000E+00  0.00000000E+00
  0.00000000E+00  0.00000000E+00  0.00000000E+00
  0.00000000E+00  0.00000000E+00  0.00000000E+00
  0.00000000E+00  0.00000000E+00  0.00000000E+00
  0.00000000E+00  0.00000000E+00  0.00000000E+00
  0.00000000E+00  0.00000000E+00  0.00000000E+00
  0.00000000E+00  0.00000000E+00  0.00000000E+00
  0.00000000E+00  0.00000000E+00  0.00000000E+00
  0.00000000E+00  0.00000000E+00  0.00000000E+00
  0.00000000E+00  0.00000000E+00  0.00000000E+00
  0.00000000E+00  0.00000000E+00  0.00000000E+00
  0.00000000E+00  0.00000000E+00  0.00000000E+00
  0.00000000E+00  0.00000000E+00  0.00000000E+00
  0.00000000E+00  0.00000000E+00  0.00000000E+00
  0.00000000E+00  0.00000000E+00  0.00000000E+00
  0.00000000E+00  0.00000000E+00  0.00000000E+00
  0.00000000E+00  0.00000000E+00  0.00000000E+00
  0.00000000E+00  0.00000000E+00  0.00000000E+00
  0.00000000E+00  0.00000000E+00  0.00000000E+00
  0.00000000E+00  0.00000000E+00  0.00000000E+00
  0.00000000E+00  0.00000000E+00  0.00000000E+00
  0.00000000E+00  0.00000000E+00  0.00000000E+00
  0.00000000E+00  0.00000000E+00  0.00000000E+00
  0.00000000E+00  0.00000000E+00  0.00000000E+00
  0.00000000E+00  0.00000000E+00  0.00000000E+00
  0.00000000E+00  0.00000000E+00  0.00000000E+00
  0.00000000E+00  0.00000000E+00  0.00000000E+00
  0.00000000E+00  0.00000000E+00  0.00000000E+00
  0.00000000E+00  0.00000000E+00  0.00000000E+00
  0.00000000E+00  0.00000000E+00  0.00000000E+00
  0.00000000E+00  0.00000000E+00  0.00000000E+00
  0.00000000E+00  0.00000000E+00  0.00000000E+00
  0.00000000E+00  0.00000000E+00  0.00000000E+00
  0.00000000E+00  0.00000000E+00  0.00000000E+00
  0.00000000E+00  0.00000000E+00  0.00000000E+00
  0.00000000E+00  0.00000000E+00  0.00000000E+00
  0.00000000E+00  0.00000000E+00  0.00000000E+00
  0.00000000E+00  0.00000000E+00  0.00000000E+00
  0.00000000E+00  0.00000000E+00  0.00000000E+00
  0.00000000E+00  0.00000000E+00  0.00000000E+00
  0.00000000E+00  0.00000000E+00  0.00000000E+00
  0.00000000E+00  0.00000000E+00  0.00000000E+00
  0.00000000E+00  0.00000000E+00  0.00000000E+00
  0.00000000E+00  0.00000000E+00  0.00000000E+00
  0.00000000E+00  0.00000000E+00  0.00000000E+00
  0.00000000E+00  0.00000000E+00  0.00000000E+00
  0.00000000E+00  0.00000000E+00  0.00000000E+00
  0.00000000E+00  0.00000000E+00  0.00000000E+00
  0.00000000E+00  0.00000000E+00  0.00000000E+00
  0.00000000E+00  0.00000000E+00  0.00000000E+00
  0.00000000E+00  0.00000000E+00  0.00000000E+00
  0.00000000E+00  0.00000000E+00  0.00000000E+00
  0.00000000E+00  0.00000000E+00  0.00000000E+00
  0.00000000E+00  0.00000000E+00  0.00000000E+00
  0.00000000E+00  0.00000000E+00  0.00000000E+00
  0.00000000E+00  0.00000000E+00  0.00000000E+00
  0.00000000E+00  0.00000000E+00  0.00000000E+00
  0.00000000E+00  0.00000000E+00  0.00000000E+00
  0.00000000E+00  0.00000000E+00  0.00000000E+00
  0.00000000E+00  0.00000000E+00  0.00000000E+00
  0.00000000E+00  0.00000000E+00  0.00000000E+00
  0.00000000E+00  0.00000000E+00  0.00000000E+00
  0.00000000E+00  0.00000000E+00  0.00000000E+00
  0.00000000E+00  0.00000000E+00  0.00000000E+00
  0.00000000E+00  0.00000000E+00  0.00000000E+00
  0.00000000E+00  0.00000000E+00  0.00000000E+00
  0.00000000E+00  0.00000000E+00  0.00000000E+00
  0.00000000E+00  0.00000000E+00  0.00000000E+00
  0.00000000E+00  0.00000000E+00  0.00000000E+00
  0.00000000E+00  0.00000000E+00  0.00000000E+00
  0.00000000E+00  0.00000000E+00  0.00000000E+00
  0.00000000E+00  0.00000000E+00  0.00000000E+00
  0.00000000E+00  0.00000000E+00  0.00000000E+00
  0.00000000E+00  0.00000000E+00  0.00000000E+00
  0.00000000E+00  0.00000000E+00  0.00000000E+00
  0.00000000E+00  0.00000000E+00  0.00000000E+00
  0.00000000E+00  0.00000000E+00  0.00000000E+00
  0.00000000E+00  0.00000000E+00  0.00000000E+00
  0.00000000E+00  0.00000000E+00  0.00000000E+00
  0.00000000E+00  0.00000000E+00  0.00000000E+00
  0.00000000E+00  0.00000000E+00  0.00000000E+00
  0.00000000E+00  0.00000000E+00  0.00000000E+00
  0.00000000E+00  0.00000000E+00  0.00000000E+00
  0.00000000E+00  0.00000000E+00  0.00000000E+00
  0.00000000E+00  0.00000000E+00  0.00000000E+00
  0.00000000E+00  0.00000000E+00  0.00000000E+00
  0.00000000E+00  0.00000000E+00  0.00000000E+00
  0.00000000E+00  0.00000000E+00  0.00000000E+00
  0.00000000E+00  0.00000000E+00  0.00000000E+00
  0.00000000E+00  0.00000000E+00  0.00000000E+00
  0.00000000E+00  0.00000000E+00  0.00000000E+00
  0.00000000E+00  0.00000000E+00  0.00000000E+00
  0.00000000E+00  0.00000000E+00  0.00000000E+00
  0.00000000E+00  0.00000000E+00  0.00000000E+00
  0.00000000E+00  0.00000000E+00  0.00000000E+00
  0.00000000E+00  0.00000000E+00  0.00000000E+00
  0.00000000E+00  0.00000000E+00  0.00000000E+00
  0.00000000E+00  0.00000000E+00  0.00000000E+00
  0.00000000E+00  0.00000000E+00  0.00000000E+00
  0.00000000E+00  0.00000000E+00  0.00000000E+00
  0.00000000E+00  0.00000000E+00  0.00000000E+00
  0.00000000E+00  0.00000000E+00  0.00000000E+00
  0.00000000E+00  0.00000000E+00  0.00000000E+00
  0.00000000E+00  0.00000000E+00  0.00000000E+00
  0.00000000E+00  0.00000000E+00  0.00000000E+00
  0.00000000E+00  0.00000000E+00  0.00000000E+00
  0.00000000E+00  0.00000000E+00  0.00000000E+00
  0.00000000E+00  0.00000000E+00  0.00000000E+00
  0.00000000E+00  0.00000000E+00  0.00000000E+00
  0.00000000E+00  0.00000000E+00  0.00000000E+00
  0.00000000E+00  0.00000000E+00  0.00000000E+00
  0.00000000E+00  0.00000000E+00  0.00000000E+00
  0.00000000E+00  0.00000000E+00  0.00000000E+00
  0.00000000E+00  0.00000000E+00  0.00000000E+00
  0.00000000E+00  0.00000000E+00  0.00000000E+00
  0.00000000E+00  0.00000000E+00  0.00000000E+00
  0.00000000E+00  0.00000000E+00  0.00000000E+00
  0.00000000E+00  0.00000000E+00  0.00000000E+00
  0.00000000E+00  0.00000000E+00  0.00000000E+00
  0.00000000E+00  0.00000000E+00  0.00000000E+00
  0.00000000E+00  0.00000000E+00  0.00000000E+00
  0.00000000E+00  0.00000000E+00  0.00000000E+00
  0.00000000E+00  0.00000000E+00  0.00000000E+00
  0.00000000E+00  0.00000000E+00  0.00000000E+00
  0.00000000E+00  0.00000000E+00  0.00000000E+00
  0.00000000E+00  0.00000000E+00  0.00000000E+00
  0.00000000E+00  0.00000000E+00  0.00000000E+00
  0.00000000E+00  0.00000000E+00  0.00000000E+00
  0.00000000E+00  0.00000000E+00  0.00000000E+00
  0.00000000E+00  0.00000000E+00  0.00000000E+00
  0.00000000E+00  0.00000000E+00  0.00000000E+00
  0.00000000E+00  0.00000000E+00  0.00000000E+00
  0.00000000E+00  0.00000000E+00  0.00000000E+00
  0.00000000E+00  0.00000000E+00  0.00000000E+00
  0.00000000E+00  0.00000000E+00  0.00000000E+00
