isodistort-output
1.0
       89.4772109985         0.0000000000         0.0000000000
        0.0000000000         5.5923299789         0.0000000000
        0.0000000000         0.0000000000         3.9165399075
   Sr   Ti    O
   32   32   96
Direct
     0.968869984         0.501110017         0.000000000
     0.468870014         0.498889983         0.000000000
     0.031369999         0.500699997         0.000000000
     0.531369984         0.499300003         0.000000000
     0.093869999         0.500169992         0.000000000
     0.593869984         0.499830008         0.000000000
     0.156369999         0.499630004         0.000000000
     0.656369984         0.500370026         0.000000000
     0.218869999         0.499139994         0.000000000
     0.718869984         0.500859976         0.000000000
     0.281370014         0.498780012         0.000000000
     0.781370044         0.501219988         0.000000000
     0.343870014         0.498600006         0.000000000
     0.843870044         0.501399994         0.000000000
     0.406370014         0.498640001         0.000000000
     0.906370044         0.501359999         0.000000000
     0.000120000         0.999080002         0.000000000
     0.500119984         0.000920000         0.000000000
     0.062619999         0.999559999         0.000000000
     0.562619984         0.000440000         0.000000000
     0.125119999         0.000100000         0.000000000
     0.625119984         0.999899983         0.000000000
     0.187619999         0.000630000         0.000000000
     0.687619984         0.999369979         0.000000000
     0.250120014         0.001060000         0.000000000
     0.750120044         0.998939991         0.000000000
     0.312620014         0.001340000         0.000000000
     0.812620044         0.998660028         0.000000000
     0.375120014         0.001400000         0.000000000
     0.875120044         0.998600006         0.000000000
     0.437620014         0.001260000         0.000000000
     0.937620044         0.998740017         0.000000000
     0.000120000         0.499650002         0.500000000
     0.500119984         0.500349998         0.500000000
     0.062619999         0.499830008         0.500000000
     0.562619984         0.500169992         0.500000000
     0.125119999         0.500029981         0.500000000
     0.625119984         0.499970019         0.500000000
     0.187619999         0.500220001         0.500000000
     0.687619984         0.499779999         0.500000000
     0.250120014         0.500389993         0.500000000
     0.750120044         0.499610007         0.500000000
     0.312620014         0.500490010         0.500000000
     0.812620044         0.499509990         0.500000000
     0.375120014         0.500519991         0.500000000
     0.875120044         0.499480009         0.500000000
     0.437620014         0.500469983         0.500000000
     0.937620044         0.499530017         0.500000000
     0.031369999         0.000270000         0.500000000
     0.531369984         0.999729991         0.500000000
     0.093869999         0.000080000         0.500000000
     0.593869984         0.999920011         0.500000000
     0.156369999         0.999870002         0.500000000
     0.656369984         0.000130000         0.500000000
     0.218869999         0.999689996         0.500000000
     0.718869984         0.000310000         0.500000000
     0.281370014         0.999549985         0.500000000
     0.781370044         0.000450000         0.500000000
     0.343870014         0.999480009         0.500000000
     0.843870044         0.000520000         0.500000000
     0.406370014         0.999490023         0.500000000
     0.906370044         0.000510000         0.500000000
     0.468870014         0.999580026         0.500000000
     0.968870044         0.000420000         0.500000000
     0.984480023         0.249970004         0.500000000
     0.484479994         0.750029981         0.500000000
     0.046990000         0.249890000         0.500000000
     0.546989977         0.750110030         0.500000000
     0.109499998         0.249829993         0.500000000
     0.609499991         0.750169992         0.500000000
     0.172010005         0.249789998         0.500000000
     0.672010005         0.750209987         0.500000000
     0.234510005         0.249789998         0.500000000
     0.734510005         0.750209987         0.500000000
     0.297010005         0.249819994         0.500000000
     0.797010005         0.750180006         0.500000000
     0.359510005         0.249870002         0.500000000
     0.859510005         0.750129998         0.500000000
     0.422010005         0.249950007         0.500000000
     0.922010005         0.750050008         0.500000000
     0.484499991         0.250030011         0.500000000
     0.984499991         0.749969959         0.500000000
     0.546989977         0.250110000         0.500000000
     0.046989977         0.749889970         0.500000000
     0.609480023         0.250169992         0.500000000
     0.109480023         0.749830008         0.500000000
     0.671980023         0.250209987         0.500000000
     0.171980023         0.749790013         0.500000000
     0.734470010         0.250209987         0.500000000
     0.234470010         0.749790013         0.500000000
     0.796970010         0.250180006         0.500000000
     0.296970010         0.749819994         0.500000000
     0.859470010         0.250129998         0.500000000
     0.359470010         0.749870002         0.500000000
     0.921980023         0.250050008         0.500000000
     0.421979994         0.749949992         0.500000000
     0.015750000         0.750069976         0.500000000
     0.515749991         0.249930024         0.500000000
     0.078240000         0.750150025         0.500000000
     0.578239977         0.249849975         0.500000000
     0.140729994         0.750199974         0.500000000
     0.640730023         0.249800026         0.500000000
     0.203219995         0.750209987         0.500000000
     0.703220010         0.249790013         0.500000000
     0.265720010         0.750199974         0.500000000
     0.765720010         0.249800026         0.500000000
     0.328220010         0.750159979         0.500000000
     0.828220010         0.249840021         0.500000000
     0.390720010         0.750090003         0.500000000
     0.890720010         0.249909997         0.500000000
     0.453229994         0.750010014         0.500000000
     0.953230023         0.249989986         0.500000000
     0.515739977         0.749930024         0.500000000
     0.015739977         0.250069976         0.500000000
     0.578249991         0.749849975         0.500000000
     0.078249991         0.250150025         0.500000000
     0.640749991         0.749800026         0.500000000
     0.140749991         0.250199974         0.500000000
     0.703260005         0.749790013         0.500000000
     0.203260005         0.250209987         0.500000000
     0.765760005         0.749800026         0.500000000
     0.265760005         0.250199974         0.500000000
     0.828260005         0.749840021         0.500000000
     0.328260005         0.250159979         0.500000000
     0.890760005         0.749909997         0.500000000
     0.390760005         0.250090003         0.500000000
     0.953249991         0.749989986         0.500000000
     0.453249991         0.250010014         0.500000000
     0.000120000         0.500360012         0.000000000
     0.500119984         0.499639988         0.000000000
     0.062619999         0.500140011         0.000000000
     0.562619984         0.499859989         0.000000000
     0.125119999         0.499900013         0.000000000
     0.625119984         0.500100017         0.000000000
     0.187619999         0.499669999         0.000000000
     0.687619984         0.500329971         0.000000000
     0.250120014         0.499489993         0.000000000
     0.750120044         0.500509977         0.000000000
     0.312620014         0.499390006         0.000000000
     0.812620044         0.500609994         0.000000000
     0.375120014         0.499379992         0.000000000
     0.875120044         0.500620008         0.000000000
     0.437620014         0.499469995         0.000000000
     0.937620044         0.500530005         0.000000000
     0.031369999         0.999740005         0.000000000
     0.531369984         0.000260000         0.000000000
     0.093869999         0.999979973         0.000000000
     0.593869984         0.000020000         0.000000000
     0.156369999         0.000220000         0.000000000
     0.656369984         0.999779999         0.000000000
     0.218869999         0.000430000         0.000000000
     0.718869984         0.999570012         0.000000000
     0.281370014         0.000570000         0.000000000
     0.781370044         0.999430001         0.000000000
     0.343870014         0.000630000         0.000000000
     0.843870044         0.999369979         0.000000000
     0.406370014         0.000590000         0.000000000
     0.906370044         0.999409974         0.000000000
     0.468870014         0.000460000         0.000000000
     0.968870044         0.999539971         0.000000000
