isodistort-output
1.0
       89.4772109985         0.0000000000         0.0000000000
        0.0000000000         5.5923299789         0.0000000000
        0.0000000000         0.0000000000         3.9165399075
   Sr   Ti    O
   32   32   96
Direct
     0.968869984         0.493710011         0.000000000
     0.468870014         0.506289959         0.000000000
     0.031369999         0.513559997         0.000000000
     0.531369984         0.486440003         0.000000000
     0.093869999         0.516669989         0.000000000
     0.593869984         0.483330011         0.000000000
     0.156369999         0.499199986         0.000000000
     0.656369984         0.500800014         0.000000000
     0.218869999         0.482719988         0.000000000
     0.718869984         0.517279983         0.000000000
     0.281370014         0.487569988         0.000000000
     0.781370044         0.512430012         0.000000000
     0.343870014         0.507770002         0.000000000
     0.843870044         0.492229998         0.000000000
     0.406370014         0.518379986         0.000000000
     0.906370044         0.481620014         0.000000000
     0.000120000         0.004370000         0.000000000
     0.500119984         0.995630026         0.000000000
     0.062619999         0.018180000         0.000000000
     0.562619984         0.981819987         0.000000000
     0.125119999         0.009540000         0.000000000
     0.625119984         0.990459979         0.000000000
     0.187619999         0.989120007         0.000000000
     0.687619984         0.010880000         0.000000000
     0.250120014         0.982129991         0.000000000
     0.750120044         0.017870000         0.000000000
     0.312620014         0.997200012         0.000000000
     0.812620044         0.002800000         0.000000000
     0.375120014         0.015720000         0.000000000
     0.875120044         0.984279990         0.000000000
     0.437620014         0.014830000         0.000000000
     0.937620044         0.985170007         0.000000000
     0.000120000         0.507000029         0.500000000
     0.500119984         0.492999971         0.500000000
     0.062619999         0.513459980         0.500000000
     0.562619984         0.486540020         0.500000000
     0.125119999         0.503300011         0.500000000
     0.625119984         0.496699989         0.500000000
     0.187619999         0.489069998         0.500000000
     0.687619984         0.510930002         0.500000000
     0.250120014         0.488330007         0.500000000
     0.750120044         0.511669993         0.500000000
     0.312620014         0.501999974         0.500000000
     0.812620044         0.498000026         0.500000000
     0.375120014         0.513199985         0.500000000
     0.875120044         0.486800015         0.500000000
     0.437620014         0.508099973         0.500000000
     0.937620044         0.491900027         0.500000000
     0.031369999         0.012300000         0.500000000
     0.531369984         0.987699986         0.500000000
     0.093869999         0.010080000         0.500000000
     0.593869984         0.989920020         0.500000000
     0.156369999         0.995410025         0.500000000
     0.656369984         0.004590000         0.500000000
     0.218869999         0.986410022         0.500000000
     0.718869984         0.013590000         0.500000000
     0.281370014         0.994189978         0.500000000
     0.781370044         0.005810000         0.500000000
     0.343870014         0.009140000         0.500000000
     0.843870044         0.990859985         0.500000000
     0.406370014         0.012810000         0.500000000
     0.906370044         0.987190008         0.500000000
     0.468870014         0.000660000         0.500000000
     0.968870044         0.999339998         0.500000000
     0.984459996         0.261370003         0.500000000
     0.484459996         0.738629997         0.500000000
     0.047049999         0.259510010         0.500000000
     0.547049999         0.740489960         0.500000000
     0.109569997         0.245910004         0.500000000
     0.609570026         0.754090011         0.500000000
     0.172000006         0.237360001         0.500000000
     0.671999991         0.762639999         0.500000000
     0.234420002         0.244420007         0.500000000
     0.734420002         0.755580008         0.500000000
     0.296929985         0.258370012         0.500000000
     0.796929955         0.741629958         0.500000000
     0.359519988         0.261979997         0.500000000
     0.859519958         0.738020003         0.500000000
     0.422069997         0.250809997         0.500000000
     0.922070026         0.749189973         0.500000000
     0.484530002         0.238629997         0.500000000
     0.984529972         0.761370003         0.500000000
     0.546940029         0.240490004         0.500000000
     0.046940029         0.759509981         0.500000000
     0.609420002         0.254090011         0.500000000
     0.109420002         0.745909989         0.500000000
     0.671989977         0.262639999         0.500000000
     0.171989977         0.737360001         0.500000000
     0.734560013         0.255580008         0.500000000
     0.234560013         0.744419992         0.500000000
     0.797049999         0.241630003         0.500000000
     0.297049999         0.758369982         0.500000000
     0.859470010         0.238020003         0.500000000
     0.359470010         0.761979997         0.500000000
     0.921909988         0.249190003         0.500000000
     0.421909988         0.750810027         0.500000000
     0.015750000         0.762549996         0.500000000
     0.515749991         0.237450004         0.500000000
     0.078319997         0.753250003         0.500000000
     0.578320026         0.246749997         0.500000000
     0.140790001         0.739939988         0.500000000
     0.640789986         0.260060012         0.500000000
     0.203199998         0.739049971         0.500000000
     0.703199983         0.260950029         0.500000000
     0.265659988         0.751680017         0.500000000
     0.765659988         0.248319983         0.500000000
     0.328220010         0.762239993         0.500000000
     0.828220010         0.237760007         0.500000000
     0.390810013         0.757690012         0.500000000
     0.890810013         0.242309988         0.500000000
     0.453310013         0.743650019         0.500000000
     0.953310013         0.256349981         0.500000000
     0.515730023         0.737450004         0.500000000
     0.015730023         0.262549996         0.500000000
     0.578159988         0.746749997         0.500000000
     0.078159988         0.253250003         0.500000000
     0.640690029         0.760060012         0.500000000
     0.140690029         0.239939988         0.500000000
     0.703279972         0.760950029         0.500000000
     0.203279972         0.239049971         0.500000000
     0.765820026         0.748319983         0.500000000
     0.265820026         0.251680017         0.500000000
     0.828260005         0.737760007         0.500000000
     0.328260005         0.262239993         0.500000000
     0.890680015         0.742309988         0.500000000
     0.390680015         0.257690012         0.500000000
     0.953170002         0.756349981         0.500000000
     0.453170002         0.243650019         0.500000000
     0.000120000         0.512969971         0.000000000
     0.500119984         0.487030029         0.000000000
     0.062619999         0.506399989         0.000000000
     0.562619984         0.493600011         0.000000000
     0.125119999         0.491930008         0.000000000
     0.625119984         0.508069992         0.000000000
     0.187619999         0.487419993         0.000000000
     0.687619984         0.512580037         0.000000000
     0.250120014         0.498439997         0.000000000
     0.750120044         0.501559973         0.000000000
     0.312620014         0.511389971         0.000000000
     0.812620044         0.488610029         0.000000000
     0.375120014         0.510270000         0.000000000
     0.875120044         0.489730000         0.000000000
     0.437620014         0.496470004         0.000000000
     0.937620044         0.503530025         0.000000000
     0.031369999         0.011650000         0.000000000
     0.531369984         0.988349974         0.000000000
     0.093869999         0.999000013         0.000000000
     0.593869984         0.001000000         0.000000000
     0.156369999         0.987580001         0.000000000
     0.656369984         0.012420000         0.000000000
     0.218869999         0.991500020         0.000000000
     0.718869984         0.008500000         0.000000000
     0.281370014         0.005910000         0.000000000
     0.781370044         0.994090021         0.000000000
     0.343870014         0.013030000         0.000000000
     0.843870044         0.986970007         0.000000000
     0.406370014         0.004060000         0.000000000
     0.906370044         0.995939970         0.000000000
     0.468870014         0.990079999         0.000000000
     0.968870044         0.009920000         0.000000000
